55
3 1 1
4 1 1
4 3 1
5 0 1
5 2 1
6 1 1
6 3 1
6 5 1
7 1 1
7 3 1
7 4 1
7 6 1
8 0 1
8 2 1
8 3 1
8 4 1
8 6 1
8 7 1
9 0 1
9 3 1
9 5 1
9 7 1
10 1 1
10 4 1
10 5 1
10 6 1
10 9 1
11 0 1
11 1 1
11 3 1
11 5 1
11 7 1
11 8 1
12 0 1
12 3 1
12 7 1
12 11 1
13 3 1
13 4 1
13 6 1
13 7 1
13 8 1
14 1 1
14 3 1
14 4 1
14 5 1
14 6 1
14 8 1
14 9 1
15 0 1
15 3 1
15 4 1
15 5 1
15 8 1
15 9 1
15 10 1
15 11 1
16 0 1
16 3 1
16 4 1
16 6 1
16 7 1
16 10 1
16 11 1
16 14 1
17 0 1
17 2 1
17 5 1
17 7 1
17 8 1
17 14 1
17 15 1
17 16 1
18 0 1
18 2 1
18 4 1
18 5 1
18 6 1
18 8 1
18 10 1
18 11 1
18 14 1
18 15 1
18 16 1
18 17 1
19 0 1
19 3 1
19 6 1
19 7 1
19 8 1
19 9 1
19 10 1
19 12 1
19 14 1
19 17 1
20 0 1
20 1 1
20 2 1
20 4 1
20 5 1
20 7 1
20 9 1
20 10 1
20 12 1
20 14 1
20 16 1
20 17 1
20 19 1
21 0 1
21 2 1
21 4 1
21 6 1
21 9 1
21 12 1
21 13 1
21 15 1
21 17 1
21 20 1
22 0 1
22 1 1
22 2 1
22 4 1
22 7 1
22 8 1
22 9 1
22 14 1
22 15 1
22 16 1
22 17 1
22 19 1
23 0 1
23 2 1
23 4 1
23 6 1
23 7 1
23 8 1
23 9 1
23 11 1
23 12 1
23 15 1
23 16 1
23 19 1
23 20 1
24 5 1
24 6 1
24 7 1
24 8 1
24 10 1
24 12 1
24 15 1
24 18 1
24 19 1
24 20 1
24 22 1
25 0 1
25 4 1
25 7 1
25 8 1
25 12 1
25 16 1
25 20 1
25 21 1
25 23 1
25 24 1
26 0 1
26 1 1
26 3 1
26 5 1
26 6 1
26 11 1
26 13 1
26 14 1
26 16 1
26 19 1
26 22 1
26 24 1
26 25 1
27 4 1
27 6 1
27 10 1
27 20 1
27 21 1
27 24 1
27 25 1
28 0 1
28 1 1
28 6 1
28 9 1
28 10 1
28 11 1
28 13 1
28 14 1
28 15 1
28 16 1
28 19 1
28 21 1
28 25 1
28 26 1
28 27 1
29 2 1
29 3 1
29 4 1
29 8 1
29 9 1
29 12 1
29 14 1
29 16 1
29 18 1
29 19 1
29 21 1
29 23 1
29 24 1
29 25 1
30 1 1
30 5 1
30 7 1
30 12 1
30 13 1
30 15 1
30 17 1
30 19 1
30 20 1
30 21 1
30 23 1
31 0 1
31 7 1
31 8 1
31 9 1
31 10 1
31 15 1
31 19 1
31 20 1
31 22 1
31 24 1
31 25 1
31 27 1
31 29 1
31 30 1
32 0 1
32 4 1
32 9 1
32 10 1
32 12 1
32 13 1
32 16 1
32 17 1
32 20 1
32 21 1
32 22 1
32 23 1
32 24 1
32 26 1
32 27 1
32 28 1
32 29 1
32 30 1
32 31 1
33 3 1
33 7 1
33 9 1
33 10 1
33 12 1
33 14 1
33 16 1
33 17 1
33 20 1
33 21 1
33 22 1
33 23 1
33 24 1
33 28 1
33 29 1
33 31 1
33 32 1
34 1 1
34 2 1
34 5 1
34 6 1
34 8 1
34 9 1
34 16 1
34 18 1
34 19 1
34 20 1
34 22 1
34 23 1
34 25 1
34 26 1
34 27 1
34 28 1
34 29 1
34 30 1
34 31 1
34 32 1
35 2 1
35 3 1
35 6 1
35 9 1
35 10 1
35 11 1
35 13 1
35 14 1
35 16 1
35 17 1
35 18 1
35 19 1
35 20 1
35 23 1
35 25 1
35 26 1
35 27 1
35 31 1
35 34 1
36 0 1
36 7 1
36 11 1
36 12 1
36 13 1
36 14 1
36 15 1
36 16 1
36 19 1
36 20 1
36 21 1
36 22 1
36 23 1
36 27 1
36 28 1
36 33 1
36 34 1
37 0 1
37 3 1
37 4 1
37 10 1
37 11 1
37 12 1
37 13 1
37 16 1
37 18 1
37 21 1
37 22 1
37 24 1
37 25 1
37 27 1
37 32 1
37 36 1
38 0 1
38 2 1
38 6 1
38 7 1
38 8 1
38 10 1
38 11 1
38 12 1
38 13 1
38 16 1
38 20 1
38 21 1
38 24 1
38 27 1
38 29 1
38 30 1
38 31 1
38 35 1
38 37 1
39 0 1
39 2 1
39 4 1
39 5 1
39 6 1
39 8 1
39 9 1
39 12 1
39 13 1
39 15 1
39 17 1
39 19 1
39 20 1
39 21 1
39 22 1
39 23 1
39 24 1
39 25 1
39 26 1
39 27 1
39 29 1
39 30 1
39 31 1
39 34 1
39 35 1
39 36 1
40 1 1
40 2 1
40 4 1
40 5 1
40 10 1
40 12 1
40 14 1
40 17 1
40 18 1
40 19 1
40 20 1
40 22 1
40 25 1
40 26 1
40 27 1
40 28 1
40 30 1
40 31 1
40 32 1
40 33 1
40 38 1
40 39 1
41 1 1
41 2 1
41 4 1
41 5 1
41 12 1
41 15 1
41 16 1
41 18 1
41 21 1
41 23 1
41 25 1
41 27 1
41 30 1
41 32 1
41 33 1
41 36 1
41 38 1
42 1 1
42 2 1
42 3 1
42 4 1
42 7 1
42 11 1
42 15 1
42 16 1
42 17 1
42 20 1
42 24 1
42 25 1
42 26 1
42 27 1
42 28 1
42 32 1
42 33 1
42 34 1
42 39 1
42 40 1
42 41 1
43 2 1
43 3 1
43 5 1
43 9 1
43 11 1
43 12 1
43 13 1
43 14 1
43 15 1
43 18 1
43 20 1
43 23 1
43 26 1
43 27 1
43 30 1
43 31 1
43 33 1
43 34 1
43 36 1
43 37 1
43 39 1
43 40 1
44 1 1
44 2 1
44 7 1
44 10 1
44 11 1
44 16 1
44 17 1
44 20 1
44 24 1
44 26 1
44 27 1
44 28 1
44 29 1
44 30 1
44 31 1
44 34 1
44 36 1
44 38 1
44 39 1
44 41 1
44 42 1
45 0 1
45 1 1
45 2 1
45 4 1
45 8 1
45 10 1
45 13 1
45 14 1
45 18 1
45 20 1
45 21 1
45 23 1
45 26 1
45 30 1
45 33 1
45 34 1
45 35 1
45 36 1
45 38 1
46 3 1
46 4 1
46 5 1
46 14 1
46 15 1
46 16 1
46 18 1
46 19 1
46 20 1
46 22 1
46 24 1
46 26 1
46 27 1
46 29 1
46 31 1
46 32 1
46 33 1
46 36 1
46 37 1
46 38 1
46 39 1
46 40 1
46 42 1
46 45 1
47 0 1
47 3 1
47 4 1
47 5 1
47 8 1
47 11 1
47 12 1
47 15 1
47 17 1
47 20 1
47 21 1
47 22 1
47 26 1
47 27 1
47 28 1
47 31 1
47 33 1
47 36 1
47 37 1
47 38 1
47 41 1
47 45 1
48 0 1
48 1 1
48 2 1
48 3 1
48 5 1
48 6 1
48 7 1
48 8 1
48 10 1
48 11 1
48 18 1
48 20 1
48 21 1
48 23 1
48 24 1
48 25 1
48 26 1
48 27 1
48 29 1
48 31 1
48 34 1
48 35 1
48 37 1
48 38 1
48 39 1
48 41 1
48 43 1
48 46 1
48 47 1
49 0 1
49 1 1
49 2 1
49 3 1
49 5 1
49 7 1
49 8 1
49 9 1
49 10 1
49 11 1
49 12 1
49 13 1
49 19 1
49 22 1
49 23 1
49 25 1
49 26 1
49 28 1
49 29 1
49 30 1
49 32 1
49 34 1
49 36 1
49 37 1
49 38 1
49 43 1
49 44 1
49 46 1
49 48 1
50 0 1
50 1 1
50 3 1
50 4 1
50 7 1
50 9 1
50 10 1
50 11 1
50 12 1
50 13 1
50 17 1
50 20 1
50 21 1
50 23 1
50 26 1
50 29 1
50 33 1
50 34 1
50 44 1
50 45 1
50 46 1
50 47 1
51 0 1
51 2 1
51 3 1
51 4 1
51 5 1
51 8 1
51 10 1
51 11 1
51 12 1
51 13 1
51 14 1
51 16 1
51 18 1
51 19 1
51 20 1
51 21 1
51 25 1
51 27 1
51 30 1
51 32 1
51 33 1
51 34 1
51 35 1
51 36 1
51 37 1
51 39 1
51 40 1
51 41 1
51 49 1
52 0 1
52 1 1
52 7 1
52 8 1
52 13 1
52 14 1
52 17 1
52 18 1
52 19 1
52 23 1
52 24 1
52 25 1
52 27 1
52 29 1
52 30 1
52 31 1
52 36 1
52 38 1
52 40 1
52 41 1
52 42 1
52 44 1
52 45 1
52 46 1
52 47 1
52 48 1
52 50 1
52 51 1
53 0 1
53 2 1
53 3 1
53 4 1
53 7 1
53 9 1
53 10 1
53 11 1
53 12 1
53 15 1
53 17 1
53 18 1
53 19 1
53 22 1
53 25 1
53 26 1
53 27 1
53 29 1
53 32 1
53 34 1
53 35 1
53 38 1
53 40 1
53 43 1
53 46 1
53 49 1
53 50 1
53 52 1
54 1 1
54 2 1
54 4 1
54 5 1
54 7 1
54 8 1
54 10 1
54 11 1
54 13 1
54 14 1
54 15 1
54 17 1
54 18 1
54 19 1
54 20 1
54 22 1
54 24 1
54 25 1
54 27 1
54 31 1
54 33 1
54 34 1
54 37 1
54 39 1
54 41 1
54 44 1
54 45 1
54 46 1
54 48 1
54 50 1
54 53 1
